p tw 12 66
0 1
0 2
0 3
0 4
0 7
0 8
0 9
0 5
0 6
0 10
0 11
1 2
1 3
1 4
1 7
1 8
1 5
1 6
1 10
1 11
1 9
2 3
2 4
2 6
2 10
2 5
2 7
2 11
2 9
2 8
3 4
3 7
3 8
3 9
3 6
3 10
3 11
3 5
4 5
4 6
4 7
4 8
4 9
4 11
4 10
5 6
5 7
5 8
5 10
5 11
5 9
6 7
6 8
6 10
6 11
6 9
7 8
7 10
7 11
7 9
8 9
8 11
8 10
9 10
9 11
10 11
